Maximize
  0.00299889603131359 Z_661_0_0 + 0.00578621701152541 Z_661_0_1
   + 0.8688047700387015 Z_661_0_2 + 0.00460997651745915 Z_661_0_3
   + 0.0178001404010003 Z_661_0_4
Subject To
 constraint1_6610: Z_661_0_0 + Z_661_0_1 + Z_661_0_2 + Z_661_0_3
   + Z_661_0_4 <= 1
 constraint2_6610: Z_661_0_0 <= 1
 constraint2_6611: Z_661_0_1 <= 1
 constraint2_6612: Z_661_0_2 <= 1
 constraint2_6613: Z_661_0_3 <= 1
Bounds
Binaries
 Z_661_0_0 Z_661_0_1 Z_661_0_2 Z_661_0_3 Z_661_0_4
End
